StudentsNr = 10;
InstructorsNr = 52;
DaysNr = 1;
SlotsPerDay = 10;
AvailabilitySlotsLenght = 10;
RoomNr = 2;
ProgrammNr = 1;
DegreeNr = 2;
RolesNr = 3;
CoursesNr = 0;
InstructorsProgramm = [{1}, {1}, {1}, {1}, {1}, {1}, {1}, {1}, {1}, {1}, {1}, {1}, {1}, {1}, {1}, {1}, {1}, {1}, {1}, {1}, {1}, {1}, {1}, {1}, {1}, {1}, {1}, {1}, {1}, {1}, {1}, {1}, {1}, {1}, {1}, {1}, {1}, {1}, {1}, {1}, {1}, {1}, {1}, {1}, {1}, {1}, {1}, {1}, {1}, {1}, {1}, {1}];
InstructorRolesPerProgramm = [|{1, 2, 3, 7, 10, 11, 12, 14, 16, 18, 22, 25, 26, 27, 29, 32, 33, 35, 36, 41, 44, 46, 50}, {1, 2, 3, 6, 10, 13, 18, 19, 21, 23, 25, 29, 30, 34, 36, 41, 43, 44, 46, 47, 48, 49, 50, 52}, {2, 3, 10, 13, 18, 22, 23, 25, 26, 27, 30, 32, 35, 36, 39, 41, 42}|];
InstructorsAvailability = [|1, |0, |1, |0, |0, |0, |1, |0, |0, |0, |1, |1, |0, |0, |0, |1, |1, |0, |1, |0, |1, |0, |0, |1, |1, |0, |1, |1, |0, |0, |0, |0, |1, |1, |1, |0, |1, |0, |0, |1, |1, |0, |0, |0, |0, |0, |0, |1, |1, |1, |1, |0|];
StudentsProgramm = [1, 1, 1, 1, 1, 1, 1, 1, 1, 1];
StudentsDegree = [2, 2, 2, 1, 1, 2, 2, 2, 2, 1];
StudentsSupervisorId = [17, 51, 1, 9, 14, 18, 9, 40, 19, 18];
StudentsCourseIds = [{}, {}, {}, {}, {}, {}, {}, {}, {}, {}];
StudentsAvailability = [|0, |1, |1, |1, |0, |1, |1, |1, |1, |0|];
TheoryticalMinCard = [1, 1, 0, 1, 0, 0, 1, 1, 0, 0];
CoursesInstructorIds = [];
RolesDemands = [9, 15, 3];
RolesContinuity = [];
ExamLen = [1, 1, 1, 2, 2, 1, 1, 1, 1, 2];
LunchTsMinLen = 1;
LunchStarts = [2..7];
SupervisorAvailable = 5;
OptimalLunchLenght = [1, 1];
OptimalStartTs = [1, 0];
OptimalFinishTs = [2, 10];
MinimizeRooms = 100;
RolesSoftContinuity = [|1, 2, 3|0, 2, 3|];
SameDegreeInRoom = 20;
Mergeability = 0;
